p cnf 12 50 
-7 2 -5 0
4 3 -1 0
-2 1 -3 0
2 8 -5 0
11 -9 -7 0
-8 3 -1 0
-6 12 3 0
12 -8 -10 0
11 -8 -7 0
7 1 -10 0
9 -10 -7 0
1 -10 -6 0
2 -12 -8 0
-10 -11 6 0
3 5 -6 0
11 -4 10 0
-7 -1 8 0
-6 4 -7 0
-2 -3 -8 0
-9 -3 -6 0
-10 2 -8 0
12 -7 5 0
2 7 -11 0
-2 -10 7 0
-12 2 -1 0
7 -4 11 0
-5 2 -4 0
-6 7 -2 0
-6 -4 -5 0
-7 -12 -5 0
-8 12 11 0
-9 -5 7 0
1 4 12 0
12 -1 4 0
-11 9 -5 0
-1 9 2 0
-10 -2 -4 0
5 -6 -2 0
-2 -4 3 0
-6 -10 -7 0
10 -8 4 0
-5 -8 -4 0
8 12 4 0
-2 -6 11 0
10 6 11 0
1 10 3 0
6 1 3 0
11 -7 10 0
-9 5 -10 0
-11 5 10 0
